(set-logic QF_UF)
(declare-fun A0 () Bool)
(declare-fun A1 () Bool)
(declare-fun A2 () Bool)
(declare-fun A3 () Bool)
(declare-fun A4 () Bool)
(declare-fun A5 () Bool)
(declare-fun A6 () Bool)
(declare-fun A7 () Bool)
(declare-fun A8 () Bool)
(declare-fun A9 () Bool)
(declare-fun A10 () Bool)
(declare-fun A11 () Bool)
(declare-fun A12 () Bool)
(declare-fun A13 () Bool)
(declare-fun A14 () Bool)
(declare-fun A15 () Bool)
(declare-fun A17 () Bool)
(declare-fun A18 () Bool)
(declare-fun A19 () Bool)
(declare-fun A20 () Bool)
(declare-fun A21 () Bool)
(declare-fun A22 () Bool)
(declare-fun A23 () Bool)
(declare-fun A24 () Bool)
(assert (let ((.def_0 (and A24 A20))) (let ((.def_1 (not .def_0))) (let ((.def_2 (not A24))) (let ((.def_3 (or A0 .def_2))) (let ((.def_4 (not .def_3))) (let ((.def_5 (or .def_4 .def_1))) (let ((.def_6 (not A1))) (let ((.def_7 (and A19 .def_6))) (let ((.def_8 (not A10))) (let ((.def_9 (and A8 .def_8))) (let ((.def_10 (not .def_9))) (let ((.def_11 (and .def_10 .def_7))) (let ((.def_12 (not .def_11))) (let ((.def_13 (and .def_12 .def_5))) (let ((.def_14 (not .def_13))) (let ((.def_15 (not A14))) (let ((.def_16 (or .def_15 A6))) (let ((.def_17 (not .def_16))) (let ((.def_18 (and A8 A15))) (let ((.def_19 (not .def_18))) (let ((.def_20 (or .def_19 .def_17))) (let ((.def_21 (not A2))) (let ((.def_22 (and A21 .def_21))) (let ((.def_23 (not A11))) (let ((.def_24 (or .def_23 A5))) (let ((.def_25 (not .def_24))) (let ((.def_26 (= .def_25 .def_22))) (let ((.def_27 (not .def_26))) (let ((.def_28 (and .def_27 .def_20))) (let ((.def_29 (not .def_28))) (let ((.def_30 (and .def_29 .def_14))) (let ((.def_31 (not A6))) (let ((.def_32 (and .def_31 .def_31))) (let ((.def_33 (not .def_32))) (let ((.def_34 (not A12))) (let ((.def_35 (and .def_34 A15))) (let ((.def_36 (not .def_35))) (let ((.def_37 (or .def_36 .def_33))) (let ((.def_38 (not A0))) (let ((.def_39 (and .def_2 .def_38))) (let ((.def_40 (not .def_39))) (let ((.def_41 (not A21))) (let ((.def_42 (and A13 .def_41))) (let ((.def_43 (not .def_42))) (let ((.def_44 (= .def_43 .def_40))) (let ((.def_45 (not .def_44))) (let ((.def_46 (or .def_45 .def_37))) (let ((.def_47 (not .def_46))) (let ((.def_48 (not A3))) (let ((.def_49 (and .def_34 .def_48))) (let ((.def_50 (not .def_49))) (let ((.def_51 (not A7))) (let ((.def_52 (or .def_51 A7))) (let ((.def_53 (not .def_52))) (let ((.def_54 (and .def_53 .def_50))) (let ((.def_55 (not A22))) (let ((.def_56 (not A4))) (let ((.def_57 (or .def_56 .def_55))) (let ((.def_58 (not .def_57))) (let ((.def_59 (not A18))) (let ((.def_60 (and .def_59 .def_15))) (let ((.def_61 (or .def_60 .def_58))) (let ((.def_62 (not .def_61))) (let ((.def_63 (and .def_62 .def_54))) (let ((.def_64 (and .def_63 .def_47))) (let ((.def_65 (or .def_64 .def_30))) (let ((.def_66 (not .def_65))) (let ((.def_67 (and A1 .def_34))) (let ((.def_68 (not .def_67))) (let ((.def_69 (not A9))) (let ((.def_70 (and .def_69 A6))) (let ((.def_71 (not .def_70))) (let ((.def_72 (and .def_71 .def_68))) (let ((.def_73 (not .def_72))) (let ((.def_74 (or .def_2 A14))) (let ((.def_75 (and .def_39 .def_74))) (let ((.def_76 (= .def_75 .def_73))) (let ((.def_77 (not .def_76))) (let ((.def_78 (or A6 .def_55))) (let ((.def_79 (not .def_78))) (let ((.def_80 (or A14 A20))) (let ((.def_81 (not .def_80))) (let ((.def_82 (or .def_81 .def_79))) (let ((.def_83 (not A5))) (let ((.def_84 (and A14 .def_83))) (let ((.def_85 (not A13))) (let ((.def_86 (or A14 .def_85))) (let ((.def_87 (not .def_86))) (let ((.def_88 (and .def_87 .def_84))) (let ((.def_89 (not .def_88))) (let ((.def_90 (or .def_89 .def_82))) (let ((.def_91 (or .def_90 .def_77))) (let ((.def_92 (not .def_91))) (let ((.def_93 (or A0 .def_23))) (let ((.def_94 (not .def_93))) (let ((.def_95 (or A24 .def_38))) (let ((.def_96 (not .def_95))) (let ((.def_97 (and .def_96 .def_94))) (let ((.def_98 (not A17))) (let ((.def_99 (not A23))) (let ((.def_100 (or .def_99 .def_98))) (let ((.def_101 (not .def_100))) (let ((.def_102 (and .def_2 .def_2))) (let ((.def_103 (or .def_102 .def_101))) (let ((.def_104 (not .def_103))) (let ((.def_105 (or .def_104 .def_97))) (let ((.def_106 (not .def_105))) (let ((.def_107 (or .def_23 A1))) (let ((.def_108 (not .def_107))) (let ((.def_109 (or A1 .def_34))) (let ((.def_110 (and .def_109 .def_108))) (let ((.def_111 (not .def_110))) (let ((.def_112 (not A19))) (let ((.def_113 (and .def_112 .def_112))) (let ((.def_114 (not A15))) (let ((.def_115 (or A18 .def_114))) (let ((.def_116 (or .def_115 .def_113))) (let ((.def_117 (and .def_116 .def_111))) (let ((.def_118 (or .def_117 .def_106))) (let ((.def_119 (not .def_118))) (let ((.def_120 (or .def_119 .def_92))) (let ((.def_121 (not .def_120))) (let ((.def_122 (or .def_121 .def_66))) .def_122))))))))))))))))))))))))))))))))))))))))))))))))))))))))))))))))))))))))))))))))))))))))))))))))))))))))))))))))))))))))))))
(check-sat)
